p cnf 12 125 
c Factors encoded in variables 1-6 and 7-12
c Target number: 1739
c Factors: 47 x 37
-4 -2 11 10 -8 0
6 5 12 0
-5 4 -2 -12 11 -10 -8 0
-6 -4 -3 -12 -11 10 -9 8 0
3 -12 10 8 0
6 4 12 11 10 8 0
-6 -5 -4 -3 12 -8 0
5 -4 11 10 -8 0
-4 3 12 9 8 0
6 5 -4 -3 -2 -10 9 0
-6 -5 4 -3 -11 -10 9 0
5 2 -11 -10 0
-6 -5 4 -3 -12 11 -9 8 0
7 0
-5 4 -12 -11 0
-5 -4 -3 -12 -9 0
5 4 -3 -2 -12 -11 0
4 3 10 -8 0
-6 -4 -3 12 11 8 0
-5 3 -2 12 -10 -8 0
-6 5 -4 -3 -12 11 -10 -9 0
12 11 0
5 4 12 9 8 0
6 3 -2 10 -9 8 0
-5 -4 11 8 0
4 -3 -2 10 0
-4 3 -12 9 0
5 -3 11 9 0
-6 -5 -11 10 0
-6 -5 -4 -12 0
-4 -10 -9 -8 0
-6 5 -11 -10 0
-5 4 -3 12 8 0
3 -9 0
-6 5 12 -11 -10 8 0
-5 4 -2 -11 -10 0
4 2 -10 -9 8 0
-6 -5 -4 -3 -2 12 0
6 3 -2 10 -8 0
-5 -11 10 9 0
-5 2 -11 10 -9 0
5 -4 -11 8 0
-5 -4 12 9 8 0
6 -5 -4 2 -11 -9 0
-5 4 11 10 0
5 -3 2 12 -10 9 0
3 12 10 0
5 4 11 -10 8 0
6 4 12 10 0
6 12 9 0
4 12 10 9 8 0
-5 4 3 12 -11 -10 0
6 5 -12 -10 -9 -8 0
6 12 11 0
-11 -10 -9 -8 0
5 2 11 10 -9 0
-6 -4 -2 -12 -10 -8 0
6 11 0
-5 4 -3 2 12 11 -10 -9 0
6 5 3 2 10 0
-5 -4 11 -10 0
6 5 -4 11 10 0
12 11 9 0
-6 -5 11 10 -9 -8 0
-6 -5 -3 12 11 10 8 0
-5 -2 -12 -11 -10 9 -8 0
5 -4 -3 12 10 -8 0
6 -3 -2 -11 -10 -9 0
5 -4 3 11 -8 0
-6 12 -11 -8 0
2 8 0
-4 -2 11 -10 -9 0
-5 -4 -3 -2 0
6 5 2 -11 -10 -9 0
5 4 3 2 -8 0
3 -11 -10 9 0
4 10 9 8 0
2 3 4 5 6 0
-4 -10 9 8 0
5 12 11 9 0
8 9 10 11 12 0
-5 3 12 -10 8 0
5 3 2 -10 -9 8 0
-4 3 2 -10 0
-5 4 11 -8 0
-6 -5 4 -12 11 -10 0
6 5 0
5 -2 -11 10 0
-3 9 0
6 5 4 12 11 10 0
-6 -5 -4 3 -11 10 -8 0
-2 -8 0
6 3 2 -12 -11 0
6 -5 -4 -3 12 -9 8 0
-6 -5 -2 -11 -9 0
5 4 -11 10 0
-6 4 3 12 -11 10 -9 0
-6 -4 3 2 -11 -8 0
-5 -4 -11 9 -8 0
3 10 -9 -8 0
4 -3 10 -9 0
4 3 -10 8 0
12 11 10 9 8 0
-6 -2 -11 -10 -9 -8 0
5 12 0
-6 5 4 12 -10 9 0
-6 5 4 -3 -12 10 -9 0
-6 5 -4 -12 -11 10 0
-5 -4 -3 12 11 8 0
4 -3 -2 9 0
-6 3 -12 -10 -9 0
-6 5 -11 -8 0
-5 4 -2 -12 11 -10 0
5 4 12 11 -10 0
-6 -3 2 -11 -10 -9 -8 0
-3 -12 -11 -10 -9 0
6 12 0
-4 -12 9 -8 0
-4 -3 2 -11 9 8 0
-12 -11 10 9 8 0
1 0
-5 -4 3 12 11 -9 -8 0
-4 -3 -2 -10 0
4 3 0
5 4 11 10 0
